p edge 610 3000
e 1 2
e 1 3
e 1 4
e 1 5
e 1 6
e 1 7
e 1 8
e 1 9
e 1 10
e 1 11
e 1 12
e 1 13
e 1 14
e 1 15
e 1 16
e 1 17
e 1 18
e 1 164
e 1 165
e 1 166
e 1 167
e 1 168
e 1 169
e 1 170
e 1 171
e 1 172
e 1 173
e 1 174
e 1 175
e 1 191
e 1 235
e 1 256
e 1 282
e 1 283
e 1 284
e 1 285
e 1 379
e 1 380
e 1 381
e 1 382
e 1 383
e 1 384
e 1 580
e 2 6
e 2 7
e 2 41
e 2 59
e 2 104
e 2 107
e 2 126
e 2 133
e 2 134
e 2 200
e 2 206
e 2 217
e 2 223
e 2 278
e 2 304
e 2 354
e 2 411
e 2 449
e 2 469
e 2 471
e 2 598
e 3 5
e 3 7
e 3 52
e 3 64
e 3 65
e 3 105
e 3 108
e 3 125
e 3 129
e 3 136
e 3 209
e 3 212
e 3 230
e 3 234
e 3 270
e 3 274
e 3 290
e 3 440
e 3 460
e 3 464
e 3 465
e 3 582
e 4 5
e 4 6
e 4 53
e 4 75
e 4 101
e 4 103
e 4 117
e 4 137
e 4 215
e 4 229
e 4 252
e 4 255
e 4 276
e 4 277
e 4 292
e 4 403
e 4 412
e 4 414
e 4 426
e 4 432
e 4 447
e 4 456
e 4 475
e 4 478
e 5 50
e 5 51
e 5 102
e 5 122
e 5 138
e 5 216
e 5 221
e 5 263
e 5 269
e 5 280
e 5 302
e 5 305
e 5 334
e 5 442
e 5 456
e 5 460
e 5 461
e 5 463
e 5 470
e 6 62
e 6 106
e 6 121
e 6 202
e 6 207
e 6 214
e 6 226
e 6 232
e 6 233
e 6 251
e 6 257
e 6 268
e 6 296
e 6 354
e 6 400
e 6 404
e 6 414
e 6 444
e 6 445
e 6 466
e 6 467
e 7 60
e 7 68
e 7 80
e 7 109
e 7 110
e 7 111
e 7 129
e 7 133
e 7 135
e 7 139
e 7 199
e 7 213
e 7 287
e 7 330
e 7 439
e 7 472
e 7 473
e 8 12
e 8 13
e 8 50
e 8 52
e 8 53
e 8 55
e 8 84
e 8 85
e 8 88
e 8 121
e 8 127
e 8 134
e 8 135
e 8 220
e 8 281
e 8 408
e 8 415
e 8 416
e 8 581
e 8 590
e 9 11
e 9 13
e 9 59
e 9 91
e 9 93
e 9 111
e 9 136
e 9 219
e 9 245
e 9 249
e 9 250
e 9 273
e 9 313
e 9 318
e 9 319
e 9 340
e 9 357
e 9 360
e 9 404
e 9 432
e 9 461
e 9 584
e 10 11
e 10 12
e 10 56
e 10 65
e 10 68
e 10 87
e 10 89
e 10 97
e 10 98
e 10 114
e 10 122
e 10 137
e 10 200
e 10 232
e 10 264
e 10 359
e 10 587
e 10 591
e 11 58
e 11 60
e 11 90
e 11 92
e 11 125
e 11 138
e 11 206
e 11 207
e 11 244
e 11 246
e 11 249
e 11 277
e 11 306
e 11 316
e 11 339
e 11 350
e 11 358
e 11 592
e 11 596
e 12 51
e 12 64
e 12 71
e 12 72
e 12 83
e 12 94
e 12 95
e 12 117
e 12 120
e 12 233
e 12 275
e 12 599
e 13 62
e 13 75
e 13 86
e 13 96
e 13 99
e 13 100
e 13 116
e 13 126
e 13 139
e 13 218
e 13 250
e 13 263
e 13 274
e 13 312
e 13 338
e 13 356
e 13 405
e 13 407
e 13 417
e 14 16
e 14 20
e 14 87
e 14 90
e 14 130
e 14 219
e 14 577
e 15 17
e 15 18
e 15 36
e 15 56
e 15 101
e 15 102
e 15 105
e 15 120
e 15 132
e 15 236
e 15 239
e 15 316
e 15 318
e 15 322
e 15 323
e 15 328
e 15 347
e 15 355
e 15 416
e 15 417
e 15 444
e 15 473
e 15 476
e 15 597
e 16 47
e 16 80
e 16 93
e 16 100
e 16 130
e 16 209
e 16 223
e 16 236
e 16 246
e 16 251
e 17 47
e 17 72
e 17 103
e 17 127
e 17 131
e 17 132
e 17 256
e 17 264
e 17 268
e 17 269
e 17 306
e 17 308
e 17 329
e 17 351
e 17 356
e 17 357
e 17 411
e 17 465
e 17 477
e 18 29
e 18 58
e 18 108
e 18 114
e 18 198
e 18 275
e 18 283
e 18 309
e 18 319
e 18 330
e 18 334
e 18 335
e 18 343
e 18 355
e 18 405
e 18 415
e 18 423
e 18 447
e 18 459
e 18 468
e 18 469
e 18 588
e 19 47
e 19 64
e 19 66
e 19 107
e 19 108
e 19 130
e 19 134
e 19 267
e 19 275
e 19 292
e 19 403
e 19 451
e 19 578
e 20 21
e 20 22
e 20 23
e 20 24
e 20 25
e 20 26
e 20 256
e 20 262
e 20 424
e 20 577
e 20 578
e 21 22
e 21 77
e 21 87
e 21 110
e 21 119
e 21 199
e 21 587
e 22 36
e 22 39
e 22 74
e 22 79
e 22 90
e 22 102
e 22 112
e 22 118
e 22 262
e 22 421
e 22 448
e 22 596
e 23 26
e 23 50
e 23 54
e 23 102
e 23 110
e 23 139
e 23 257
e 23 296
e 23 407
e 23 409
e 23 416
e 23 430
e 23 609
e 24 49
e 24 95
e 24 106
e 24 123
e 24 128
e 24 409
e 24 421
e 24 422
e 24 424
e 24 599
e 25 64
e 25 67
e 25 79
e 25 86
e 25 95
e 25 131
e 25 139
e 25 199
e 25 234
e 26 46
e 26 73
e 26 119
e 26 123
e 26 256
e 26 258
e 26 437
e 26 603
e 27 43
e 27 47
e 27 94
e 27 198
e 27 238
e 27 247
e 27 251
e 27 268
e 27 275
e 28 32
e 28 34
e 28 49
e 28 112
e 28 119
e 28 191
e 28 198
e 28 203
e 28 283
e 28 437
e 29 31
e 29 36
e 29 77
e 29 128
e 29 196
e 29 198
e 29 241
e 29 271
e 29 448
e 30 45
e 30 47
e 30 78
e 30 93
e 30 108
e 30 123
e 30 128
e 30 198
e 30 265
e 30 357
e 30 428
e 31 61
e 31 103
e 31 107
e 31 137
e 31 198
e 31 206
e 31 264
e 31 265
e 31 290
e 31 358
e 31 455
e 31 582
e 31 600
e 32 89
e 32 93
e 32 137
e 32 198
e 32 210
e 32 240
e 32 251
e 32 255
e 32 281
e 32 404
e 32 459
e 33 70
e 33 84
e 33 102
e 33 113
e 33 115
e 33 135
e 33 287
e 33 305
e 33 413
e 34 49
e 34 57
e 34 63
e 34 102
e 34 106
e 34 138
e 34 248
e 34 287
e 34 316
e 34 352
e 34 360
e 34 402
e 34 404
e 34 419
e 34 453
e 34 604
e 35 63
e 35 98
e 35 110
e 35 124
e 35 232
e 35 272
e 35 287
e 35 288
e 35 296
e 35 299
e 35 324
e 35 586
e 36 37
e 36 38
e 36 39
e 36 196
e 36 236
e 36 239
e 36 421
e 37 49
e 37 57
e 37 86
e 37 110
e 37 119
e 37 205
e 37 262
e 37 271
e 37 417
e 37 602
e 37 610
e 38 68
e 38 70
e 38 71
e 38 74
e 38 106
e 38 110
e 38 233
e 38 236
e 38 302
e 38 305
e 38 359
e 38 605
e 39 71
e 39 73
e 39 95
e 39 105
e 39 128
e 40 61
e 40 82
e 40 83
e 40 108
e 40 253
e 40 291
e 40 304
e 40 346
e 40 582
e 41 42
e 41 113
e 41 124
e 41 254
e 41 284
e 41 296
e 41 298
e 41 304
e 41 406
e 42 44
e 42 75
e 42 76
e 42 103
e 42 108
e 42 136
e 42 258
e 42 304
e 42 319
e 42 320
e 42 353
e 42 356
e 42 425
e 42 452
e 42 454
e 43 47
e 43 81
e 43 89
e 43 103
e 43 119
e 43 258
e 43 259
e 43 267
e 43 271
e 43 428
e 43 579
e 44 49
e 44 118
e 44 128
e 44 194
e 44 235
e 44 241
e 44 258
e 44 266
e 44 282
e 45 47
e 45 100
e 45 109
e 45 238
e 45 258
e 45 356
e 45 451
e 45 610
e 46 50
e 46 81
e 46 88
e 46 93
e 46 136
e 46 204
e 46 209
e 46 258
e 46 458
e 47 48
e 47 236
e 48 68
e 48 69
e 48 78
e 48 88
e 48 89
e 48 132
e 48 134
e 48 236
e 49 194
e 49 235
e 49 262
e 49 283
e 49 421
e 49 422
e 49 423
e 49 602
e 49 608
e 50 51
e 50 52
e 50 53
e 50 54
e 50 204
e 50 263
e 50 427
e 50 435
e 50 609
e 51 64
e 51 81
e 51 86
e 51 100
e 51 109
e 51 110
e 51 117
e 51 122
e 51 267
e 51 457
e 52 64
e 52 113
e 52 135
e 52 228
e 52 274
e 52 451
e 53 75
e 53 93
e 53 108
e 53 117
e 53 121
e 53 130
e 53 219
e 53 270
e 53 409
e 53 459
e 54 108
e 54 109
e 54 127
e 54 139
e 54 269
e 54 297
e 54 312
e 54 464
e 55 66
e 55 71
e 55 98
e 55 110
e 55 116
e 55 127
e 55 129
e 55 256
e 55 270
e 56 61
e 56 82
e 56 91
e 56 104
e 56 106
e 56 114
e 56 120
e 56 264
e 56 316
e 56 340
e 56 354
e 57 59
e 57 103
e 57 104
e 57 105
e 57 119
e 57 125
e 57 316
e 57 360
e 57 477
e 58 63
e 58 96
e 58 103
e 58 114
e 58 268
e 58 316
e 58 319
e 58 324
e 58 338
e 58 350
e 58 414
e 59 89
e 59 97
e 59 101
e 59 103
e 59 111
e 59 126
e 59 132
e 59 205
e 59 206
e 59 404
e 60 68
e 60 78
e 60 94
e 60 95
e 60 106
e 60 111
e 60 125
e 60 131
e 60 206
e 60 248
e 60 265
e 60 268
e 61 101
e 61 106
e 61 137
e 61 206
e 61 346
e 61 350
e 61 419
e 61 449
e 61 466
e 62 75
e 62 90
e 62 102
e 62 121
e 62 126
e 62 240
e 62 244
e 62 320
e 62 334
e 62 355
e 62 404
e 62 431
e 62 436
e 63 103
e 63 138
e 63 272
e 63 273
e 63 334
e 63 404
e 63 425
e 63 434
e 63 445
e 63 478
e 64 65
e 64 66
e 64 67
e 64 578
e 65 68
e 65 74
e 65 79
e 65 85
e 65 88
e 65 104
e 65 107
e 65 122
e 65 125
e 65 458
e 66 104
e 66 105
e 66 110
e 66 120
e 66 124
e 66 134
e 66 260
e 66 472
e 67 80
e 67 88
e 67 100
e 67 139
e 67 227
e 67 230
e 68 69
e 68 70
e 68 200
e 68 279
e 69 85
e 69 87
e 69 95
e 69 134
e 69 197
e 69 228
e 70 72
e 70 107
e 70 114
e 70 115
e 70 233
e 70 268
e 70 330
e 70 471
e 70 600
e 71 72
e 71 73
e 71 74
e 71 256
e 71 301
e 71 325
e 71 587
e 72 92
e 72 107
e 72 109
e 72 120
e 72 127
e 72 133
e 72 264
e 72 592
e 73 105
e 73 112
e 73 119
e 73 209
e 73 236
e 73 259
e 74 107
e 74 112
e 74 117
e 74 270
e 74 359
e 74 412
e 74 474
e 74 578
e 75 76
e 75 194
e 75 201
e 75 263
e 75 406
e 75 420
e 75 432
e 76 102
e 76 113
e 76 116
e 76 136
e 76 261
e 76 270
e 76 313
e 76 412
e 76 430
e 76 470
e 77 87
e 77 118
e 77 128
e 77 199
e 77 264
e 77 330
e 78 95
e 78 123
e 78 126
e 78 218
e 78 244
e 79 88
e 79 97
e 79 111
e 79 118
e 79 199
e 79 234
e 79 245
e 80 88
e 80 94
e 80 199
e 80 209
e 80 216
e 80 223
e 81 86
e 81 94
e 81 119
e 81 125
e 81 209
e 81 246
e 82 91
e 82 127
e 82 286
e 82 597
e 83 92
e 83 96
e 83 285
e 83 293
e 83 301
e 83 310
e 83 311
e 83 312
e 83 315
e 83 349
e 83 350
e 83 583
e 83 590
e 83 591
e 83 595
e 84 91
e 84 98
e 84 113
e 84 114
e 84 295
e 84 298
e 84 309
e 84 313
e 84 314
e 84 338
e 84 348
e 84 413
e 84 427
e 84 580
e 84 589
e 84 590
e 85 86
e 85 87
e 85 88
e 86 90
e 86 95
e 86 100
e 86 125
e 86 194
e 86 204
e 86 218
e 86 221
e 86 222
e 86 237
e 86 245
e 86 271
e 86 424
e 87 89
e 87 90
e 87 121
e 87 226
e 88 89
e 88 93
e 88 94
e 88 111
e 88 112
e 88 191
e 88 193
e 88 218
e 88 220
e 88 230
e 88 231
e 88 238
e 88 603
e 89 93
e 89 97
e 89 119
e 89 121
e 89 192
e 89 202
e 89 205
e 89 208
e 89 223
e 89 224
e 89 244
e 89 579
e 90 95
e 90 117
e 90 118
e 90 194
e 90 196
e 90 210
e 90 219
e 90 226
e 90 227
e 90 240
e 90 244
e 90 246
e 90 276
e 90 448
e 90 602
e 91 98
e 91 99
e 91 127
e 91 288
e 91 289
e 91 297
e 91 298
e 91 308
e 91 317
e 91 340
e 91 346
e 91 347
e 91 592
e 91 594
e 92 96
e 92 115
e 92 116
e 92 253
e 92 261
e 92 286
e 92 300
e 92 301
e 92 307
e 92 339
e 92 351
e 92 592
e 93 100
e 93 122
e 93 123
e 93 197
e 93 201
e 93 219
e 93 228
e 93 229
e 93 245
e 93 246
e 93 429
e 94 95
e 94 191
e 94 208
e 94 246
e 94 247
e 95 97
e 95 126
e 95 128
e 95 195
e 95 196
e 95 220
e 95 225
e 95 235
e 96 99
e 96 120
e 96 260
e 96 272
e 96 286
e 96 293
e 96 321
e 96 323
e 96 324
e 96 338
e 96 340
e 96 342
e 96 343
e 96 420
e 96 585
e 97 210
e 97 235
e 97 245
e 97 421
e 98 124
e 98 273
e 98 284
e 98 289
e 98 294
e 98 295
e 98 325
e 98 339
e 98 344
e 98 345
e 98 591
e 99 120
e 99 314
e 99 347
e 99 406
e 100 240
e 100 610
e 101 102
e 101 103
e 101 291
e 101 313
e 101 409
e 101 413
e 101 419
e 101 421
e 101 434
e 101 444
e 101 447
e 101 449
e 101 450
e 101 579
e 102 105
e 102 106
e 102 110
e 102 111
e 102 112
e 102 115
e 102 116
e 102 269
e 102 299
e 102 313
e 102 320
e 102 334
e 102 422
e 102 453
e 103 107
e 103 108
e 103 124
e 103 125
e 103 260
e 103 268
e 103 269
e 103 271
e 103 273
e 103 412
e 103 454
e 103 455
e 103 601
e 104 105
e 104 106
e 104 107
e 104 256
e 104 303
e 104 337
e 104 411
e 104 439
e 104 603
e 105 108
e 105 116
e 105 126
e 105 253
e 105 254
e 105 465
e 105 473
e 106 110
e 106 122
e 106 123
e 106 256
e 106 265
e 106 268
e 106 297
e 106 341
e 106 350
e 106 412
e 106 445
e 106 604
e 106 605
e 107 108
e 107 109
e 107 113
e 107 114
e 107 117
e 107 118
e 107 238
e 107 261
e 107 282
e 107 445
e 107 449
e 107 593
e 108 126
e 108 127
e 108 128
e 108 259
e 108 270
e 108 312
e 108 330
e 108 334
e 108 346
e 108 409
e 108 451
e 108 452
e 109 110
e 109 265
e 109 269
e 109 282
e 109 439
e 109 440
e 109 586
e 110 119
e 110 120
e 110 121
e 110 267
e 110 270
e 110 272
e 110 283
e 110 330
e 110 449
e 110 610
e 111 132
e 111 136
e 111 139
e 111 220
e 111 248
e 111 269
e 111 320
e 112 236
e 112 238
e 112 240
e 112 408
e 112 422
e 112 437
e 112 441
e 112 579
e 113 261
e 113 290
e 113 406
e 113 427
e 114 275
e 114 354
e 114 359
e 114 445
e 114 589
e 115 207
e 115 253
e 115 257
e 115 261
e 115 279
e 115 299
e 115 302
e 115 326
e 115 443
e 115 589
e 116 256
e 116 312
e 116 339
e 116 356
e 116 360
e 116 460
e 117 130
e 117 137
e 117 233
e 117 240
e 117 246
e 117 449
e 117 457
e 118 238
e 118 241
e 118 306
e 118 320
e 118 602
e 119 203
e 119 247
e 119 587
e 120 133
e 120 247
e 120 275
e 120 324
e 120 416
e 120 449
e 121 134
e 121 205
e 121 233
e 121 267
e 121 330
e 121 410
e 121 459
e 122 137
e 122 138
e 122 245
e 122 265
e 122 445
e 122 458
e 123 203
e 123 236
e 123 318
e 123 409
e 123 429
e 123 437
e 123 438
e 123 603
e 123 610
e 124 200
e 124 254
e 124 260
e 124 292
e 124 324
e 124 337
e 124 413
e 125 131
e 125 136
e 125 138
e 125 218
e 125 412
e 126 134
e 126 139
e 126 355
e 126 409
e 127 129
e 127 330
e 127 356
e 127 416
e 128 259
e 128 265
e 128 266
e 128 448
e 129 131
e 129 289
e 129 464
e 129 472
e 130 578
e 131 256
e 131 462
e 131 477
e 132 133
e 132 476
e 132 477
e 133 286
e 133 471
e 133 472
e 134 135
e 134 291
e 134 413
e 135 139
e 135 192
e 136 204
e 136 274
e 136 303
e 136 461
e 137 210
e 137 232
e 137 277
e 138 194
e 138 201
e 138 277
e 138 461
e 138 586
e 139 274
e 140 143
e 140 144
e 140 152
e 140 162
e 140 169
e 140 180
e 141 142
e 141 145
e 141 156
e 141 160
e 141 164
e 141 176
e 142 145
e 142 154
e 142 163
e 142 166
e 142 178
e 143 144
e 143 157
e 143 158
e 143 167
e 143 177
e 144 155
e 144 159
e 144 168
e 144 181
e 145 153
e 145 161
e 145 165
e 145 179
e 146 149
e 146 151
e 146 157
e 146 158
e 146 170
e 146 176
e 146 370
e 146 374
e 146 383
e 146 390
e 146 485
e 146 486
e 146 508
e 146 510
e 146 536
e 146 541
e 147 148
e 147 150
e 147 154
e 147 163
e 147 172
e 147 180
e 147 371
e 147 375
e 147 379
e 147 385
e 147 483
e 147 486
e 147 506
e 147 516
e 147 538
e 147 541
e 147 574
e 147 575
e 148 150
e 148 153
e 148 161
e 148 175
e 148 181
e 148 369
e 148 378
e 148 381
e 148 387
e 148 484
e 148 485
e 148 514
e 148 515
e 148 536
e 148 537
e 148 575
e 148 576
e 149 151
e 149 155
e 149 159
e 149 174
e 149 179
e 149 367
e 149 377
e 149 384
e 149 389
e 149 482
e 149 483
e 149 512
e 149 513
e 149 538
e 149 539
e 150 156
e 150 160
e 150 171
e 150 177
e 150 368
e 150 376
e 150 380
e 150 388
e 150 482
e 150 487
e 150 507
e 150 511
e 150 539
e 150 540
e 150 574
e 150 576
e 151 152
e 151 162
e 151 173
e 151 178
e 151 372
e 151 373
e 151 382
e 151 386
e 151 484
e 151 487
e 151 509
e 151 517
e 151 537
e 151 540
e 152 168
e 152 170
e 152 177
e 152 179
e 152 487
e 152 488
e 152 496
e 152 517
e 152 529
e 152 543
e 153 164
e 153 172
e 153 177
e 153 178
e 153 484
e 153 492
e 153 505
e 153 515
e 153 531
e 153 551
e 154 165
e 154 171
e 154 176
e 154 181
e 154 486
e 154 489
e 154 497
e 154 516
e 154 528
e 154 544
e 155 167
e 155 173
e 155 176
e 155 180
e 155 483
e 155 493
e 155 504
e 155 512
e 155 525
e 155 553
e 156 166
e 156 175
e 156 179
e 156 180
e 156 482
e 156 490
e 156 500
e 156 507
e 156 533
e 156 546
e 157 169
e 157 174
e 157 178
e 157 181
e 157 485
e 157 491
e 157 503
e 157 508
e 157 532
e 157 548
e 158 394
e 158 507
e 159 398
e 159 515
e 160 395
e 160 508
e 161 399
e 161 512
e 162 397
e 162 516
e 163 396
e 163 517
e 164 168
e 164 169
e 164 178
e 164 183
e 164 190
e 164 364
e 164 372
e 164 387
e 164 395
e 165 167
e 165 169
e 165 176
e 165 182
e 165 187
e 165 366
e 165 370
e 165 385
e 165 399
e 166 167
e 166 168
e 166 179
e 166 184
e 166 186
e 166 361
e 166 367
e 166 388
e 166 396
e 167 180
e 167 189
e 167 363
e 167 371
e 167 389
e 167 391
e 167 394
e 168 177
e 168 188
e 168 362
e 168 368
e 168 386
e 168 393
e 168 398
e 169 181
e 169 185
e 169 365
e 169 369
e 169 390
e 169 392
e 169 397
e 170 172
e 170 175
e 170 179
e 170 187
e 170 485
e 170 522
e 170 541
e 170 542
e 170 552
e 170 559
e 170 568
e 170 573
e 171 173
e 171 174
e 171 181
e 171 183
e 171 188
e 171 482
e 171 519
e 171 540
e 171 545
e 171 550
e 171 558
e 171 572
e 172 174
e 172 177
e 172 184
e 172 189
e 172 486
e 172 523
e 172 538
e 172 542
e 172 549
e 172 564
e 172 566
e 173 175
e 173 176
e 173 190
e 173 487
e 173 518
e 173 537
e 173 545
e 173 547
e 173 560
e 173 567
e 173 571
e 174 178
e 174 186
e 174 483
e 174 520
e 174 539
e 174 549
e 174 550
e 174 555
e 174 569
e 174 607
e 175 180
e 175 182
e 175 185
e 175 484
e 175 521
e 175 536
e 175 547
e 175 552
e 175 556
e 175 570
e 176 182
e 176 508
e 176 541
e 176 544
e 177 184
e 177 507
e 177 540
e 177 543
e 178 183
e 178 517
e 178 537
e 178 551
e 179 184
e 179 512
e 179 539
e 179 546
e 180 182
e 180 516
e 180 538
e 180 553
e 181 183
e 181 515
e 181 536
e 181 548
e 182 185
e 182 187
e 182 510
e 182 575
e 183 188
e 183 190
e 183 509
e 183 576
e 184 186
e 184 189
e 184 513
e 184 574
e 185 375
e 186 373
e 187 377
e 188 378
e 189 376
e 190 374
e 191 198
e 191 202
e 191 218
e 191 229
e 191 235
e 191 239
e 191 248
e 192 204
e 192 213
e 192 222
e 192 224
e 192 281
e 193 210
e 193 216
e 193 227
e 193 231
e 193 242
e 193 281
e 193 461
e 194 201
e 194 252
e 194 457
e 195 201
e 195 212
e 195 225
e 195 228
e 195 274
e 196 205
e 196 206
e 196 208
e 196 233
e 196 355
e 197 211
e 197 214
e 197 225
e 197 228
e 197 232
e 198 238
e 198 239
e 198 402
e 198 423
e 198 428
e 198 601
e 200 206
e 200 231
e 200 232
e 201 218
e 201 225
e 201 229
e 201 244
e 202 208
e 202 213
e 202 226
e 202 229
e 202 243
e 202 244
e 203 236
e 203 246
e 203 247
e 203 316
e 203 449
e 203 602
e 203 605
e 204 219
e 204 220
e 204 221
e 204 224
e 205 219
e 205 220
e 205 271
e 206 207
e 206 208
e 206 253
e 206 254
e 207 225
e 207 232
e 207 277
e 207 299
e 207 404
e 207 604
e 208 222
e 208 223
e 208 233
e 208 237
e 208 246
e 209 259
e 210 226
e 210 231
e 210 245
e 210 276
e 210 404
e 211 212
e 211 225
e 211 229
e 211 278
e 212 215
e 212 217
e 212 228
e 212 229
e 212 280
e 213 214
e 213 216
e 213 221
e 213 222
e 213 243
e 213 278
e 214 216
e 214 225
e 215 217
e 215 223
e 215 224
e 215 237
e 216 226
e 216 227
e 216 280
e 217 230
e 217 231
e 217 242
e 217 276
e 217 278
e 218 230
e 218 244
e 218 437
e 218 601
e 219 220
e 219 262
e 219 276
e 220 235
e 220 266
e 220 422
e 221 234
e 221 235
e 221 243
e 221 245
e 221 250
e 221 276
e 221 446
e 222 237
e 223 251
e 224 237
e 224 243
e 224 432
e 226 251
e 226 252
e 226 280
e 227 242
e 227 263
e 229 246
e 229 249
e 229 252
e 229 276
e 230 234
e 230 242
e 230 441
e 232 233
e 232 600
e 232 605
e 234 235
e 234 262
e 235 248
e 235 276
e 235 423
e 236 579
e 236 610
e 237 243
e 237 277
e 238 240
e 238 258
e 238 320
e 238 415
e 238 429
e 238 601
e 238 603
e 239 247
e 239 603
e 240 251
e 240 255
e 241 245
e 241 271
e 241 319
e 241 429
e 241 445
e 241 446
e 241 455
e 242 276
e 243 280
e 244 428
e 244 438
e 247 603
e 248 249
e 248 402
e 249 276
e 249 308
e 249 351
e 249 352
e 250 323
e 250 347
e 250 353
e 250 431
e 252 421
e 253 254
e 253 582
e 254 290
e 254 299
e 254 322
e 254 337
e 254 339
e 254 346
e 254 454
e 255 276
e 255 431
e 255 437
e 255 601
e 256 282
e 256 333
e 256 336
e 256 345
e 256 360
e 256 412
e 256 439
e 256 458
e 256 462
e 256 463
e 256 587
e 256 596
e 257 293
e 257 296
e 257 326
e 257 403
e 257 435
e 258 259
e 258 282
e 258 428
e 258 429
e 258 577
e 258 608
e 258 609
e 260 272
e 260 274
e 260 291
e 260 303
e 260 403
e 260 582
e 261 277
e 261 303
e 261 304
e 261 403
e 261 420
e 261 589
e 261 593
e 262 270
e 262 360
e 262 441
e 263 272
e 263 274
e 263 461
e 264 265
e 264 289
e 264 306
e 264 307
e 264 587
e 264 600
e 265 269
e 265 358
e 265 462
e 266 269
e 266 271
e 266 422
e 266 452
e 267 271
e 267 275
e 267 334
e 267 445
e 267 479
e 267 609
e 268 320
e 268 330
e 268 402
e 268 411
e 268 443
e 268 444
e 268 600
e 269 273
e 269 279
e 269 463
e 269 465
e 270 283
e 270 412
e 270 430
e 270 440
e 270 441
e 270 442
e 270 578
e 271 405
e 271 424
e 271 446
e 271 601
e 272 302
e 272 326
e 272 341
e 272 410
e 272 420
e 272 435
e 273 282
e 273 312
e 273 313
e 273 353
e 273 358
e 273 360
e 273 456
e 273 591
e 274 430
e 274 452
e 275 293
e 275 314
e 275 415
e 275 599
e 276 278
e 276 431
e 277 419
e 277 432
e 277 455
e 277 593
e 279 302
e 279 591
e 279 604
e 282 283
e 282 312
e 282 331
e 282 358
e 282 440
e 282 445
e 282 457
e 282 458
e 282 474
e 282 475
e 282 577
e 282 595
e 283 311
e 283 313
e 283 332
e 283 350
e 283 359
e 283 407
e 283 408
e 283 442
e 283 449
e 283 457
e 283 459
e 283 467
e 283 479
e 283 599
e 283 608
e 284 285
e 284 296
e 284 309
e 284 339
e 284 347
e 284 353
e 284 426
e 285 304
e 285 323
e 285 351
e 285 352
e 285 353
e 285 400
e 285 580
e 285 588
e 285 590
e 285 591
e 286 304
e 286 316
e 286 317
e 286 356
e 286 597
e 287 288
e 287 289
e 287 290
e 287 580
e 287 586
e 287 598
e 287 600
e 288 326
e 288 330
e 288 346
e 288 404
e 289 290
e 289 307
e 289 360
e 289 581
e 290 346
e 290 580
e 290 582
e 291 304
e 291 403
e 291 410
e 291 413
e 291 450
e 291 452
e 291 590
e 291 597
e 292 295
e 292 305
e 292 346
e 292 403
e 292 406
e 292 413
e 292 593
e 293 314
e 293 401
e 293 403
e 293 407
e 293 414
e 293 588
e 293 589
e 294 321
e 294 329
e 294 342
e 294 344
e 294 357
e 294 418
e 295 305
e 295 310
e 295 315
e 295 359
e 295 456
e 295 584
e 296 297
e 296 298
e 296 299
e 296 400
e 296 401
e 296 425
e 296 426
e 296 427
e 297 305
e 297 310
e 297 341
e 297 346
e 297 427
e 297 461
e 297 586
e 298 319
e 298 321
e 298 322
e 298 324
e 298 354
e 298 416
e 299 322
e 299 339
e 300 314
e 300 327
e 300 328
e 300 348
e 300 417
e 300 480
e 301 302
e 301 325
e 301 358
e 301 460
e 301 582
e 302 305
e 302 341
e 302 435
e 302 582
e 303 304
e 303 337
e 303 340
e 303 341
e 303 455
e 303 582
e 304 400
e 304 419
e 304 420
e 304 598
e 305 586
e 306 316
e 306 342
e 306 357
e 306 455
e 306 596
e 307 340
e 307 348
e 307 351
e 307 360
e 307 591
e 308 317
e 308 322
e 308 335
e 308 345
e 308 351
e 308 580
e 308 592
e 309 314
e 309 327
e 309 331
e 309 338
e 309 343
e 309 347
e 309 588
e 310 312
e 310 338
e 310 339
e 310 346
e 310 350
e 310 401
e 311 315
e 311 333
e 311 343
e 311 590
e 312 334
e 312 353
e 312 407
e 312 460
e 313 319
e 313 350
e 313 352
e 313 407
e 313 434
e 313 456
e 313 589
e 313 590
e 314 407
e 315 359
e 315 594
e 315 595
e 316 317
e 316 318
e 316 419
e 316 602
e 317 338
e 317 339
e 317 347
e 317 349
e 317 356
e 317 583
e 318 319
e 318 348
e 318 357
e 318 417
e 318 453
e 319 320
e 319 321
e 319 405
e 319 425
e 319 429
e 319 606
e 320 330
e 320 356
e 320 402
e 320 476
e 321 323
e 321 343
e 321 344
e 321 416
e 321 590
e 322 323
e 322 324
e 322 580
e 323 332
e 323 340
e 323 347
e 323 351
e 323 418
e 323 588
e 324 592
e 325 342
e 325 345
e 325 358
e 325 585
e 325 592
e 326 330
e 326 404
e 326 410
e 326 443
e 326 588
e 327 331
e 327 348
e 327 351
e 328 332
e 328 333
e 328 348
e 329 331
e 329 335
e 329 342
e 329 343
e 330 469
e 330 473
e 331 335
e 331 336
e 331 351
e 332 333
e 332 344
e 332 345
e 332 418
e 332 480
e 332 585
e 333 336
e 333 347
e 333 583
e 333 594
e 334 425
e 334 428
e 334 436
e 334 442
e 334 445
e 334 446
e 334 447
e 334 448
e 334 609
e 335 349
e 335 595
e 336 347
e 336 418
e 337 345
e 337 455
e 337 593
e 337 598
e 338 339
e 338 401
e 338 580
e 339 345
e 339 480
e 339 481
e 340 341
e 340 589
e 340 591
e 341 400
e 341 443
e 341 461
e 342 418
e 342 585
e 343 597
e 344 408
e 344 480
e 344 581
e 344 585
e 344 606
e 345 418
e 345 580
e 346 406
e 346 432
e 346 450
e 346 593
e 347 450
e 347 597
e 348 581
e 348 584
e 348 606
e 349 405
e 349 481
e 349 583
e 350 352
e 350 358
e 350 359
e 350 412
e 350 414
e 350 438
e 351 443
e 352 419
e 352 433
e 352 580
e 353 425
e 354 355
e 354 466
e 354 471
e 355 468
e 355 476
e 356 357
e 356 417
e 357 360
e 357 402
e 357 454
e 358 428
e 358 448
e 358 596
e 359 421
e 359 579
e 359 599
e 360 596
e 361 364
e 361 366
e 361 372
e 361 373
e 361 385
e 362 363
e 362 365
e 362 369
e 362 378
e 362 389
e 363 365
e 363 368
e 363 376
e 363 390
e 364 366
e 364 370
e 364 374
e 364 388
e 365 371
e 365 375
e 365 386
e 366 367
e 366 377
e 366 387
e 367 383
e 367 386
e 367 388
e 367 482
e 367 493
e 367 499
e 367 513
e 367 526
e 367 550
e 368 379
e 368 386
e 368 387
e 368 487
e 368 490
e 368 494
e 368 511
e 368 524
e 368 545
e 369 380
e 369 385
e 369 390
e 369 485
e 369 492
e 369 498
e 369 514
e 369 527
e 369 552
e 370 382
e 370 385
e 370 389
e 370 486
e 370 491
e 370 495
e 370 510
e 370 530
e 370 542
e 371 381
e 371 388
e 371 389
e 371 483
e 371 489
e 371 501
e 371 506
e 371 534
e 371 549
e 372 384
e 372 387
e 372 390
e 372 484
e 372 488
e 372 502
e 372 509
e 372 535
e 372 547
e 373 506
e 374 511
e 375 509
e 376 510
e 377 514
e 378 513
e 379 383
e 379 384
e 379 387
e 379 392
e 379 399
e 379 483
e 379 519
e 379 541
e 379 544
e 379 553
e 379 563
e 379 570
e 379 571
e 380 382
e 380 384
e 380 385
e 380 391
e 380 396
e 380 487
e 380 521
e 380 539
e 380 543
e 380 546
e 380 562
e 380 566
e 380 568
e 381 382
e 381 383
e 381 388
e 381 393
e 381 395
e 381 485
e 381 523
e 381 537
e 381 548
e 381 551
e 381 557
e 381 572
e 381 607
e 382 389
e 382 398
e 382 484
e 382 522
e 382 540
e 382 543
e 382 551
e 382 565
e 382 569
e 383 386
e 383 397
e 383 486
e 383 520
e 383 536
e 383 544
e 383 548
e 383 561
e 383 567
e 384 390
e 384 394
e 384 482
e 384 518
e 384 538
e 384 546
e 384 553
e 384 554
e 384 573
e 385 391
e 385 506
e 385 541
e 385 542
e 386 393
e 386 509
e 386 540
e 386 545
e 387 392
e 387 514
e 387 537
e 387 547
e 388 393
e 388 511
e 388 539
e 388 550
e 389 391
e 389 513
e 389 538
e 389 549
e 390 392
e 390 510
e 390 536
e 390 552
e 391 394
e 391 396
e 391 512
e 391 574
e 392 397
e 392 399
e 392 508
e 392 575
e 393 395
e 393 398
e 393 517
e 393 576
e 400 410
e 400 425
e 400 443
e 401 407
e 401 414
e 401 426
e 402 404
e 402 423
e 402 454
e 403 426
e 403 430
e 404 431
e 404 432
e 404 433
e 404 434
e 405 407
e 405 415
e 405 417
e 405 452
e 405 601
e 406 420
e 406 449
e 406 450
e 406 451
e 407 408
e 407 409
e 407 424
e 407 430
e 407 436
e 407 437
e 407 480
e 407 481
e 408 415
e 408 422
e 408 599
e 409 416
e 409 436
e 409 449
e 409 468
e 410 434
e 410 590
e 411 567
e 412 424
e 412 437
e 412 463
e 412 475
e 413 598
e 414 433
e 414 459
e 414 466
e 414 478
e 415 416
e 415 451
e 415 609
e 416 417
e 416 603
e 417 610
e 419 455
e 419 598
e 420 449
e 421 579
e 421 604
e 423 446
e 424 437
e 425 431
e 425 453
e 425 461
e 426 430
e 426 450
e 427 435
e 427 445
e 428 438
e 428 446
e 428 448
e 428 454
e 429 445
e 430 452
e 431 453
e 432 433
e 432 454
e 432 461
e 433 588
e 434 436
e 434 467
e 434 478
e 435 445
e 436 438
e 436 467
e 436 468
e 437 438
e 437 441
e 437 453
e 437 601
e 438 579
e 438 608
e 439 570
e 440 573
e 441 608
e 441 610
e 442 566
e 443 453
e 444 572
e 445 467
e 445 475
e 446 454
e 447 569
e 448 577
e 449 467
e 449 469
e 449 602
e 450 452
e 451 452
e 451 609
e 453 461
e 454 455
e 456 457
e 456 470
e 456 478
e 457 474
e 457 479
e 458 460
e 458 462
e 458 474
e 459 468
e 459 479
e 460 464
e 460 470
e 462 554
e 463 521
e 464 556
e 465 518
e 466 555
e 467 523
e 468 557
e 469 520
e 470 559
e 471 558
e 472 560
e 473 519
e 474 562
e 475 522
e 476 561
e 477 563
e 478 564
e 479 565
e 480 481
e 482 499
e 482 500
e 482 509
e 482 516
e 482 518
e 482 519
e 482 524
e 482 525
e 482 536
e 483 501
e 483 504
e 483 508
e 483 511
e 483 519
e 483 520
e 483 526
e 483 528
e 483 537
e 484 502
e 484 505
e 484 507
e 484 510
e 484 521
e 484 522
e 484 527
e 484 529
e 484 538
e 485 498
e 485 503
e 485 506
e 485 517
e 485 522
e 485 523
e 485 530
e 485 531
e 485 539
e 486 495
e 486 497
e 486 513
e 486 515
e 486 520
e 486 523
e 486 532
e 486 534
e 486 540
e 487 494
e 487 496
e 487 512
e 487 514
e 487 518
e 487 521
e 487 533
e 487 535
e 487 541
e 488 529
e 488 535
e 488 546
e 488 552
e 489 528
e 489 534
e 489 548
e 489 550
e 490 524
e 490 533
e 490 547
e 490 553
e 491 530
e 491 532
e 491 549
e 491 551
e 492 527
e 492 531
e 492 542
e 492 543
e 493 525
e 493 526
e 493 544
e 493 545
e 494 500
e 494 509
e 494 535
e 494 560
e 494 570
e 495 503
e 495 506
e 495 534
e 495 564
e 495 569
e 496 502
e 496 507
e 496 533
e 496 562
e 496 573
e 497 501
e 497 508
e 497 532
e 497 561
e 497 572
e 498 505
e 498 510
e 498 530
e 498 559
e 498 566
e 499 504
e 499 511
e 499 524
e 499 558
e 499 567
e 500 512
e 500 525
e 500 554
e 500 570
e 501 513
e 501 526
e 501 555
e 501 572
e 502 514
e 502 527
e 502 556
e 502 573
e 503 515
e 503 531
e 503 557
e 503 569
e 504 516
e 504 528
e 504 563
e 504 567
e 505 517
e 505 529
e 505 565
e 505 566
e 506 539
e 506 564
e 507 538
e 507 562
e 508 537
e 508 561
e 508 575
e 509 536
e 509 560
e 509 576
e 510 538
e 510 559
e 510 575
e 511 537
e 511 558
e 512 541
e 512 554
e 512 574
e 513 540
e 513 555
e 513 574
e 514 541
e 514 556
e 515 540
e 515 557
e 516 536
e 516 563
e 517 539
e 517 565
e 517 576
e 518 524
e 518 533
e 518 571
e 519 525
e 519 526
e 519 571
e 520 528
e 520 534
e 520 607
e 521 529
e 521 535
e 521 568
e 522 527
e 522 531
e 522 568
e 523 530
e 523 532
e 523 607
e 524 545
e 524 563
e 525 553
e 525 560
e 526 550
e 526 561
e 527 552
e 527 562
e 528 544
e 528 558
e 529 543
e 529 559
e 530 542
e 530 565
e 531 551
e 531 564
e 532 548
e 532 555
e 533 546
e 533 556
e 534 549
e 534 557
e 535 547
e 535 554
e 536 567
e 536 570
e 537 567
e 537 572
e 538 566
e 538 573
e 539 566
e 539 569
e 540 569
e 540 572
e 541 570
e 541 573
e 542 543
e 542 559
e 542 564
e 543 562
e 543 565
e 544 545
e 544 561
e 544 563
e 545 558
e 545 560
e 546 552
e 546 554
e 546 562
e 547 553
e 547 556
e 547 560
e 548 550
e 548 557
e 548 561
e 549 551
e 549 555
e 549 564
e 550 555
e 550 558
e 551 557
e 551 565
e 552 556
e 552 559
e 553 554
e 553 563
e 566 568
e 567 571
e 568 573
e 569 607
e 570 571
e 572 607
e 577 609
e 578 599
e 579 608
e 580 598
e 583 594
e 583 596
e 584 594
e 584 606
e 585 599
e 586 592
e 586 593
e 586 605
e 587 594
e 587 596
e 587 605
e 588 589
e 589 591
e 591 595
e 591 606
e 592 593
e 593 598
e 596 604
e 600 605
e 604 605
e 608 610
